&CONTROL
  calculation  = "relax",
  prefix       = "HCpot",
  pseudo_dir   = "/data/home/btx156/espresso/pseudo/",
/
&SYSTEM
  ibrav     = 0,
  nat       = 148, 
  ntyp      = 4,
  ecutwfc   = 30.D0, 
  tot_charge = 0
  input_dft = "PBE"
  london = .true.
/
&ELECTRONS
  conv_thr    = 1.D-7,
  mixing_beta = 0.7D0,
  electron_maxstep = 1000
/
&IONS
  pot_extrapolation = "none",
  wfc_extrapolation = "none",
/
CELL_PARAMETERS (angstrom)
       12.1199998856         0.0000000000         0.0000000000
        0.0000000000        10.2849998474         0.0000000000
       -5.4720203118         0.0000000000        11.2441994632
ATOMIC_SPECIES
C  12.0d0     C.pbe-rrkjus.UPF
H  1.0079d0   H.pbe-rrkjus.UPF
O  15.9994d0  O.pbe-rrkjus.UPF
N  14.0067d0  N.pbe-rrkjus.UPF
ATOMIC_POSITIONS (angstrom)
C        4.833167002   3.466376016   4.555866450
C        1.814811998   6.818622984   6.688332550
C        4.550821998   8.608877016   1.066233550
C        2.097157002   1.676123984  10.177966450
C        3.590753871   2.826096093   4.280935199
C        3.057226129   7.458903907   6.963263801
C        5.793236129   7.968596093   1.341163801
C        0.854743871   2.316403907   9.903035199
C        3.431394588   2.017919735   3.139793040
C        3.216584412   8.267080265   8.104405960
C        5.952595412   7.160419735   2.482305960
C        0.695384588   3.124580265   8.761893040
C        4.513289047   1.834495258   2.237453072
C        2.134690953   8.450504742   9.006746928
C        4.870700953   6.976995258   3.384646928
C        1.777278047   3.308004742   7.859552072
C        5.736882296   2.479188602   2.489230586
C        0.911097704   7.805811398   8.754969414
C        3.647107704   7.621688602   3.132869414
C        3.000871296   2.663311398   8.111330586
C        5.945285910   3.308637905   3.637912130
C        0.702694090   6.976362095   7.606286870
C        3.438704090   8.451137905   1.984187870
C        3.209274910   1.833862095   9.260012130
C        7.248924982   3.998757119   3.894770645
C       -0.600944982   6.286242881   7.349429355
C        2.135065018   9.141257119   1.727329355
C        4.512914982   1.143742881   9.516870645
C        8.378090582   3.807309567   2.993504278
C       -1.730111582   6.477690433   8.250695722
C        1.005898418   8.949809567   2.628595722
C        5.642080582   1.335190433   8.615603278
C        9.586658675   4.473009346   3.180631964
C       -2.938679675   5.811990654   8.063568036
C       -0.202669675   9.615508346   2.441468036
C        6.850648675   0.669490654   8.802731964
C       10.806793934   4.308086165   2.424085478
C       -4.158813934   5.976913835   8.820114522
C       -1.422803934   9.450585165   3.198014522
C        8.070783934   0.834413835   8.046184478
C       10.975750476   3.344610933   1.371831731
C       -4.327770476   6.940389067   9.872368269
C       -1.591760476   8.487110933   4.250268269
C        8.239740476   1.797889067   6.993931731
C        0.072457684   3.189200215   0.703053777
C        6.575522316   7.095799785  10.541145223
C        9.311532316   8.331700215   4.919045223
C       -2.663552316   1.953299785   6.325153777
C        1.206193976   4.021857669   1.032781088
C        5.441786024   6.263142331  10.211417912
C        8.177796024   9.164357669   4.589318912
C       -1.529816024   1.120642331   6.654881088
C        1.057600572   4.976718096   2.101951769
C        5.590378428   5.308281904   9.142248231
C        8.326389428  10.119218096   3.520148231
C       -1.678409428   0.165781904   7.724050769
C       -0.168354281   5.103636442   2.764517924
C        6.816334281   5.181363558   8.479681076
C        9.552344281  10.246136442   2.857581076
C       -2.904365281   0.038863558   8.386617924
C       -2.955866337   2.910192437  10.495755054
C        9.603846337   7.374808563   0.748443946
C        6.867836337   8.052691437   6.370543946
C       -0.219856337   2.232307563   4.873655054
C        3.520243194   4.818925443   0.626927002
C        3.127736806   5.466074557  10.617272998
C        5.863746806   9.961425443   4.995172998
C        0.784232194   0.323574557   6.249026002
H        2.751633636   2.996897991   5.001746629
H        3.896345364   7.288101009   6.242453371
H        6.632356364   8.139397991   0.620353371
H        0.015623636   2.145601009  10.623845629
H        2.447264996   1.522320473   2.937080178
H        4.200714004   8.762679527   8.307118822
H        6.936724004   6.664820473   2.685019822
H       -0.288745004   3.620179527   8.559180178
H        4.399831187   1.184506327   1.334993608
H        2.248147813   9.100493673   9.909205392
H        4.984158813   6.327006327   4.287106392
H        1.663821187   3.957993673   6.957093608
H        6.566372439   2.323872912   1.757831320
H        0.081606561   7.961126088   9.486368680
H        2.817616561   7.466372912   3.864268680
H        3.830362439   2.818626088   7.379931320
H        8.280473655   3.084502369   2.147683571
H       -1.632494655   7.200497631   9.096516429
H        1.103515345   8.227002369   3.474416429
H        5.544463655   2.057997631   7.769782571
H        9.630190041   5.205961294   4.031167761
H       -2.982210041   5.079038706   7.213031239
H       -0.246200041  10.348461294   1.590931239
H        6.894179041  -0.063461294   9.653267761
H       10.119988889   2.686007559   1.074389978
H       -3.472009889   7.598992441  10.169810022
H       -0.735999889   7.828507559   4.547710022
H        7.383978889   2.456492441   6.696488978
H        0.151202228   2.421717156  -0.104489087
H        6.496777772   7.863282844  11.348688087
H        9.232787772   7.564216156   5.726589087
H       -2.584807772   2.720782844   5.517610913
H        1.919359704   5.617177867   2.411185437
H        4.728619296   4.667822133   8.833014563
H        7.464630296   0.474677867   3.210914563
H       -0.816650296   9.810322133   8.033284437
H       -0.274238421   5.846028635   3.596638656
H        6.922218421   4.438971365   7.647561344
H        9.658228421   0.703528635   2.025461344
H       -3.010248421   9.581471365   9.218738656
H       -3.141770396   1.866430381  10.880978063
H        9.789750396   8.418569619   0.363220937
H        7.053740396   7.008930381   5.985320937
H       -0.405760396   3.276069619   5.258878063
H       -1.921641278   2.956101906  10.062554819
H        8.569620278   7.328898094   1.181645181
H        5.833610278   8.098601906   6.803745181
H        0.814369722   2.186398094   4.440454819
H       -3.694124678   3.115139529   9.667087393
H       10.342104678   7.169859471   1.577111607
H        7.606094678   8.257639529   7.199211607
H       -0.958114678   2.027359471   4.044987393
H        3.205948622   5.897492856   0.507747597
H        3.442031378   4.387507144  10.736451403
H        6.178041378   0.754992856   5.114352403
H        0.469938622   9.530007144   6.129847597
H        4.358595906   4.608172524  -0.090409243
H        2.289383094   5.676827476  11.334609243
H        5.025393094   9.750672524   5.712509243
H        1.622585906   0.534327476   5.531690757
H        3.906048036   4.683334839   1.679440606
H        2.741931964   5.601664161   9.564759394
H        5.477941964   9.825835839   3.942659394
H        1.170038036   0.459165161   7.301539606
H        5.939524172   4.611117239   5.641152071
H        0.708455828   5.673882761   5.603047929
H       -2.027554172   9.753617239  11.225146929
H        8.675534172   0.531382761   0.019052071
N        2.400007209   3.904900406   0.334598023
N        4.247972791   6.380099594  10.909600977
N        6.983982791   9.047400406   5.287501977
N       -0.336002791   1.237599594   5.956698023
O        4.904078313   4.225490276   5.720852742
O        1.743901687   6.059509724   5.523346258
O       -0.992109313   9.367990276  11.145446258
O        7.640088313   0.917009724   0.098752742
O        7.388694406   4.789459871   4.966399370
O       -0.740715406   5.495540129   6.277799630
O        1.995294594   9.931959871   0.655699630
O        4.652684406   0.353040129  10.588499370
K_POINTS {automatic}
2 3 2 0 0 0

