%chk=HP_Mon_H_1.chk
%mem=2GB
%nproc=4
# wb97xd 6-311++g** td=(root=1,nstates=1) nosymm

Monomer Excitation H1

0 1
H        3.249809000      1.255049000      1.149636000
C        3.156912000      0.167462000      1.080475000
H        3.018558000     -0.097841000      0.031927000
H        4.079346000     -0.295969000      1.443957000
N        2.022127000     -0.300574000      1.856453000
C        0.971087000     -0.884025000      1.280550000
C        2.014763000     -0.017902000      3.278582000
C       -0.181857000     -1.281173000      1.903170000
H        1.056240000     -1.062342000      0.212470000
H        1.819639000     -0.932225000      3.848537000
H        2.987944000      0.374064000      3.571110000
H        1.248162000      0.724955000      3.527576000
C       -1.172143000     -1.994760000      1.145085000
H       -0.335935000     -1.105601000      2.956483000
C       -2.465425000     -2.364375000      1.787541000
O       -0.977156000     -2.330632000     -0.042860000
C       -3.298074000     -3.321217000      1.163794000
C       -2.903713000     -1.792329000      2.990652000
H       -2.151107000     -3.452800000     -0.305064000
C       -4.498958000     -3.704170000      1.771591000
O       -2.983612000     -3.890922000     -0.005857000
C       -4.101957000     -2.154185000      3.576386000
H       -2.299292000     -1.030018000      3.466700000
C       -4.894978000     -3.124585000      2.961132000
H       -5.106508000     -4.452301000      1.275116000
H       -4.421720000     -1.687315000      4.500109000
H       -5.835213000     -3.421827000      3.413024000

