%chk=HP_Mon_H_2.chk
%mem=2GB
%nproc=4
# wb97xd 6-311++g** td=(root=1,nstates=1) nosymm

Monomer Excitation H2

0 1
C        2.462405000      2.375572000     -1.800125000
C        1.159578000      2.013360000     -1.173465000
C        3.313492000      3.292147000     -1.139962000
C        2.888558000      1.852738000     -3.030336000
C        0.201041000      1.230789000     -1.905309000
O        0.921875000      2.418525000     -0.014927000
C        4.525267000      3.671279000     -1.729410000
O        3.007768000      3.827443000      0.046358000
H        2.133175000      3.438542000      0.300185000
C        4.092137000      2.216912000     -3.601796000
H        2.264076000      1.138734000     -3.552176000
C       -1.000959000      0.947165000     -1.313357000
H        0.407522000      0.922738000     -2.918369000
C        4.908207000      3.139107000     -2.943634000
H        5.144495000      4.388729000     -1.203865000
H        4.394380000      1.795305000     -4.552644000
H       -1.151386000      1.289612000     -0.293372000
N       -2.028940000      0.304394000     -1.865188000
H        5.849760000      3.443398000     -3.387932000
C       -1.922537000     -0.234483000     -3.207129000
C       -3.226450000     -0.008097000     -1.105437000
H       -1.645935000      0.552887000     -3.915959000
H       -2.886600000     -0.644443000     -3.507159000
H       -1.172147000     -1.031410000     -3.245282000
H       -3.167451000      0.461706000     -0.124087000
H       -3.327256000     -1.088156000     -0.968495000
H       -4.111155000      0.375575000     -1.623476000

