%chk=HP_Mon_J_2.chk
%mem=2GB
%nproc=4
# wb97xd 6-311++g** td=(singlets,nstates=1) nosymm

Monomer Excitation J2

0 1
C        0.172341000     -0.187617000     -2.513281000
C       -1.159280000     -0.530958000     -1.948253000
C        0.999324000      0.726072000     -1.820478000
C        0.658540000     -0.735505000     -3.710156000
C       -2.064376000     -1.389635000     -2.681212000
O       -1.484290000     -0.059676000     -0.839821000
C        2.258423000      1.060020000     -2.329142000
O        0.621977000      1.299573000     -0.671555000
H       -0.251704000      0.892357000     -0.441721000
C        1.901769000     -0.403627000     -4.211587000
H        0.053759000     -1.445943000     -4.259628000
C       -3.253773000     -1.710577000     -2.098465000
H       -1.804856000     -1.753759000     -3.663895000
C        2.702534000      0.499963000     -3.510111000
H        2.867752000      1.758760000     -1.767654000
H        2.253370000     -0.846389000     -5.135799000
H       -3.441076000     -1.319371000     -1.102273000
N       -4.234034000     -2.457669000     -2.623664000
H        3.683379000      0.761646000     -3.891993000
C       -4.096938000     -3.015073000     -3.954991000
C       -5.442712000     -2.754541000     -1.878978000
H       -3.912790000     -2.222641000     -4.688619000
H       -5.018438000     -3.528928000     -4.225763000
H       -3.268862000     -3.731619000     -3.998260000
H       -5.393468000     -2.277174000     -0.900074000
H       -5.556990000     -3.833238000     -1.732732000
H       -6.325552000     -2.375343000     -2.404822000

