%chk=2hc_5_rel-mega_UFF.chk
%nproc=4
%mem=28GB
#p ONIOM(wb97xd/6-31G*:UFF=QEq)=(EmbedCharge) nosymm

 Title 

0 1
     C 0   0.442568   4.111194  -1.768776 H 
     C 0   0.980799   5.451369  -1.804264 H 
     O 0  -0.806792   3.929983  -1.997515 H 
     C 0   1.277096   2.944988  -1.459764 H 
     C 0   0.154918   6.497118  -2.099970 H 
     H 0   2.039463   5.608860  -1.607520 H 
     H 0  -0.991874   2.503935  -1.783992 H 
     C 0   0.639524   1.675075  -1.345573 H 
     C 0   2.673160   3.026368  -1.235962 H 
     C 0   0.459852   7.886075  -2.215293 H 
     H 0  -0.889951   6.233245  -2.294640 H 
     O 0  -0.683008   1.531736  -1.557099 H 
     C 0   1.395693   0.543704  -0.993913 H 
     C 0   3.401537   1.894495  -0.894950 H 
     H 0   3.179571   3.983468  -1.332354 H 
     C 0  -0.559433   8.771751  -2.630074 H 
     C 0   1.734508   8.438621  -1.952004 H 
     H 0   0.895090  -0.415506  -0.874753 H 
     C 0   2.752846   0.650728  -0.761818 H 
     O 0   4.750541   1.882141  -0.656254 H 
     C 0  -0.332311  10.122517  -2.795999 H 
     H 0  -1.554425   8.369760  -2.826601 H 
     C 0   1.983322   9.781106  -2.117030 H 
     H 0   2.542629   7.798478  -1.599585 H 
     H 0   3.337255  -0.217089  -0.454120 H 
     C 0   5.446990   3.134268  -0.715900 H 
     C 0   0.958302  10.668268  -2.556992 H 
     H 0  -1.152791  10.768440  -3.101451 H 
     H 0   2.968783  10.170646  -1.877625 H 
     H 0   5.008707   3.856506  -0.008023 H 
     H 0   6.476927   2.915549  -0.418324 H 
     H 0   5.419350   3.558440  -1.730294 H 
     N 0   1.214892  11.991662  -2.734692 H 
     C 0   2.572013  12.503922  -2.598423 H 
     C 0   0.121530  12.922542  -2.953518 H 
     H 0   3.270338  11.921878  -3.218117 H 
     H 0   2.599581  13.547996  -2.922249 H 
     H 0   2.914187  12.469219  -1.552242 H 
     H 0  -0.623061  12.853538  -2.144933 H 
     H 0  -0.395472  12.723482  -3.908250 H 
     H 0   0.516993  13.943115  -2.970654 H 
     C -1  -1.388303  10.863180   0.715900 M 
     H -1  -0.950020  10.140942   0.008023 M 
     H -1  -2.418240  11.081899   0.418323 M 
     H -1  -1.360663  10.439007   1.730294 M 
     O -1  -0.691854  12.115306   0.656254 M 
     C -1   0.657150  12.102953   0.894950 M 
     C -1   1.305842  13.346719   0.761818 M 
     C -1   1.385527  10.971079   1.235962 M 
     C -1   2.662994  13.453743   0.993914 M 
     H -1   0.721433  14.214537   0.454120 M 
     C -1   2.781591  11.052459   1.459764 M 
     H -1   0.879116  10.013979   1.332353 M 
     C -1   3.419163  12.322372   1.345573 M 
     H -1   3.163598  14.412954   0.874752 M 
     C -1   3.616119   9.886253   1.768776 M 
     O -1   4.741695  12.465712   1.557099 M 
     C -1   3.077888   8.546079   1.804264 M 
     O -1   4.865479  10.067464   1.997515 M 
     H -1   5.050560  11.493512   1.783992 M 
     H -1   2.019224   8.388588   1.607520 M 
     C -1   3.903769   7.500330   2.099970 M 
     C -1   3.598836   6.111373   2.215293 M 
     H -1   4.948639   7.764202   2.294640 M 
     C -1   4.618120   5.225697   2.630073 M 
     C -1   2.324179   5.558826   1.952003 M 
     C -1   4.390998   3.874931   2.795999 M 
     H -1   5.613112   5.627687   2.826601 M 
     H -1   1.516058   6.198970   1.599585 M 
     C -1   2.075366   4.216342   2.117029 M 
     C -1   3.100385   3.329179   2.556992 M 
     H -1   5.211477   3.229007   3.101450 M 
     H -1   1.089905   3.826802   1.877625 M 
     N -1   2.843795   2.005786   2.734692 M 
     C -1   1.486674   1.493526   2.598423 M 
     C -1   3.937157   1.074906   2.953518 M 
     H -1   0.788349   2.075570   3.218118 M 
     H -1   1.459106   0.449451   2.922249 M 
     H -1   1.144500   1.528228   1.552242 M 
     H -1   3.541694   0.054333   2.970653 M 
     H -1   4.681748   1.143909   2.144933 M 
     H -1   4.454159   1.273966   3.908249 M 
     C -1   0.134528  -8.781231  -4.030590 M 
     H -1  -0.746474  -8.203850  -4.350885 M 
     H -1  -0.154177  -9.827588  -3.882571 M 
     H -1   0.916381  -8.716901  -4.802010 M 
     O -1   0.603463  -8.320878  -2.756122 M 
     C -1   0.953098  -7.000168  -2.644728 M 
     C -1   1.178200  -6.555826  -1.326419 M 
     C -1   1.081761  -6.113987  -3.704896 M 
     C -1   1.439719  -5.226981  -1.066972 M 
     H -1   1.102381  -7.275196  -0.510496 M 
     C -1   1.374977  -4.748042  -3.468734 M 
     H -1   0.941796  -6.471218  -4.722677 M 
     C -1   1.499262  -4.297696  -2.121133 M 
     H -1   1.566983  -4.870263  -0.045477 M 
     C -1   1.582019  -3.771253  -4.547421 M 
     O -1   1.679880  -2.998855  -1.827526 M 
     C -1   1.710145  -4.196893  -5.927102 M 
     O -1   1.698894  -2.534661  -4.235690 M 
     H -1   1.700022  -2.539860  -2.761271 M 
     C -1   1.959986  -3.299802  -6.927274 M 
     H -1   1.662313  -5.262623  -6.148364 M 
     C -1   2.182633  -3.581022  -8.316179 M 
     H -1   1.994538  -2.243570  -6.637048 M 
     C -1   2.377663  -2.518976  -9.226556 M 
     C -1   2.204645  -4.889780  -8.854553 M 
     C -1   2.553685  -2.733769 -10.579733 M 
     H -1   2.361882  -1.496258  -8.843759 M 
     C -1   2.381592  -5.126742 -10.199771 M 
     H -1   2.080942  -5.745734  -8.192229 M 
     C -1   2.538244  -4.049846 -11.116252 M 
     H -1   2.664162  -1.879716 -11.243998 M 
     H -1   2.391798  -6.157286 -10.547720 M 
     N -1   2.651239  -4.280057 -12.454837 M 
     C -1   2.441909  -5.613439 -13.001271 M 
     C -1   2.909007  -3.182022 -13.367027 M 
     H -1   3.292240  -6.284692 -12.789381 M 
     H -1   2.298646  -5.535877 -14.082121 M 
     H -1   1.531079  -6.070182 -12.588878 M 
     H -1   2.038216  -2.510119 -13.445548 M 
     H -1   3.112987  -3.583547 -14.365042 M 
     H -1   3.783495  -2.597926 -13.035802 M 
     C -1  -0.134527   8.781232   4.030590 M 
     H -1   0.746474   8.203851   4.350885 M 
     H -1   0.154178   9.827589   3.882571 M 
     H -1  -0.916381   8.716901   4.802010 M 
     O -1  -0.603463   8.320878   2.756122 M 
     C -1  -0.953098   7.000168   2.644728 M 
     C -1  -1.178199   6.555827   1.326419 M 
     C -1  -1.081761   6.113988   3.704896 M 
     C -1  -1.439719   5.226982   1.066972 M 
     H -1  -1.102381   7.275196   0.510496 M 
     C -1  -1.374976   4.748042   3.468734 M 
     H -1  -0.941796   6.471219   4.722677 M 
     C -1  -1.499262   4.297697   2.121133 M 
     H -1  -1.566983   4.870264   0.045477 M 
     C -1  -1.582019   3.771254   4.547421 M 
     O -1  -1.679880   2.998855   1.827526 M 
     C -1  -1.710145   4.196894   5.927102 M 
     O -1  -1.698894   2.534661   4.235690 M 
     H -1  -1.700022   2.539861   2.761271 M 
     C -1  -1.959985   3.299802   6.927274 M 
     H -1  -1.662313   5.262624   6.148364 M 
     C -1  -2.182633   3.581023   8.316179 M 
     H -1  -1.994538   2.243571   6.637048 M 
     C -1  -2.377662   2.518977   9.226556 M 
     C -1  -2.204645   4.889781   8.854553 M 
     C -1  -2.553685   2.733769  10.579733 M 
     H -1  -2.361882   1.496259   8.843759 M 
     C -1  -2.381592   5.126742  10.199771 M 
     H -1  -2.080942   5.745734   8.192229 M 
     C -1  -2.538244   4.049846  11.116252 M 
     H -1  -2.664162   1.879716  11.243998 M 
     H -1  -2.391798   6.157287  10.547720 M 
     N -1  -2.651239   4.280058  12.454837 M 
     C -1  -2.441909   5.613439  13.001271 M 
     C -1  -2.909007   3.182022  13.367027 M 
     H -1  -3.292240   6.284692  12.789381 M 
     H -1  -2.298645   5.535877  14.082121 M 
     H -1  -1.531079   6.070183  12.588877 M 
     H -1  -2.038216   2.510119  13.445547 M 
     H -1  -3.112986   3.583548  14.365041 M 
     H -1  -3.783494   2.597926  13.035802 M 
     C -1   9.311173   8.781232   4.030590 M 
     H -1  10.192174   8.203851   4.350885 M 
     H -1   9.599878   9.827589   3.882571 M 
     H -1   8.529319   8.716901   4.802010 M 
     O -1   8.842237   8.320878   2.756122 M 
     C -1   8.492602   7.000168   2.644728 M 
     C -1   8.267501   6.555827   1.326419 M 
     C -1   8.363939   6.113988   3.704896 M 
     C -1   8.005981   5.226982   1.066972 M 
     H -1   8.343319   7.275196   0.510496 M 
     C -1   8.070724   4.748042   3.468734 M 
     H -1   8.503904   6.471219   4.722677 M 
     C -1   7.946438   4.297697   2.121133 M 
     H -1   7.878717   4.870264   0.045477 M 
     C -1   7.863681   3.771254   4.547421 M 
     O -1   7.765820   2.998855   1.827526 M 
     C -1   7.735555   4.196894   5.927102 M 
     O -1   7.746806   2.534661   4.235690 M 
     H -1   7.745678   2.539861   2.761271 M 
     C -1   7.485715   3.299802   6.927274 M 
     H -1   7.783387   5.262624   6.148364 M 
     C -1   7.263067   3.581023   8.316179 M 
     H -1   7.451162   2.243571   6.637048 M 
     C -1   7.068038   2.518977   9.226556 M 
     C -1   7.241055   4.889781   8.854553 M 
     C -1   6.892015   2.733769  10.579733 M 
     H -1   7.083818   1.496259   8.843759 M 
     C -1   7.064108   5.126742  10.199771 M 
     H -1   7.364758   5.745734   8.192229 M 
     C -1   6.907456   4.049846  11.116252 M 
     H -1   6.781538   1.879716  11.243998 M 
     H -1   7.053902   6.157287  10.547720 M 
     N -1   6.794461   4.280058  12.454837 M 
     C -1   7.003791   5.613439  13.001271 M 
     C -1   6.536693   3.182022  13.367027 M 
     H -1   6.153460   6.284692  12.789381 M 
     H -1   7.147055   5.535877  14.082121 M 
     H -1   7.914621   6.070183  12.588877 M 
     H -1   7.407484   2.510119  13.445547 M 
     H -1   6.332714   3.583548  14.365041 M 
     H -1   5.662206   2.597926  13.035802 M 
     C -1  -1.437250   1.737391  -5.090015 M 
     C -1  -2.092518   1.760412  -6.327449 M 
     H -1  -1.982015   2.053463  -4.200181 M 
     C -1  -0.108550   1.349894  -4.987871 M 
     C -1  -1.383439   1.367706  -7.502291 M 
     O -1  -3.384223   2.148685  -6.382283 M 
     C -1   0.609255   0.982157  -6.138682 M 
     H -1   0.364433   1.345964  -4.007958 M 
     C -1  -2.077928   1.405596  -8.799930 M 
     C -1  -0.034409   0.987679  -7.370556 M 
     H -1  -3.603283   2.088332  -7.393147 M 
     O -1   1.938158   0.624828  -6.139270 M 
     C -1  -1.392868   1.031835 -10.014222 M 
     O -1  -3.303921   1.776190  -8.822378 M 
     H -1   0.547798   0.696891  -8.242350 M 
     C -1   2.651358   0.800924  -4.906419 M 
     C -1  -1.970686   1.177892 -11.240158 M 
     H -1  -0.397200   0.602107  -9.935780 M 
     H -1   2.505904   1.820143  -4.514101 M 
     H -1   3.709475   0.655998  -5.149228 M 
     H -1   2.326778   0.061456  -4.158875 M 
     C -1  -1.442455   0.804607 -12.516617 M 
     H -1  -2.971715   1.619772 -11.253795 M 
     C -1  -2.247663   0.993537 -13.660685 M 
     C -1  -0.165861   0.232584 -12.722303 M 
     C -1  -1.854201   0.590184 -14.918195 M 
     H -1  -3.218203   1.472900 -13.542240 M 
     C -1   0.256689  -0.153628 -13.974088 M 
     H -1   0.506110   0.091446 -11.874529 M 
     H -1  -2.519861   0.758137 -15.761098 M 
     C -1  -0.590160  -0.021376 -15.110249 M 
     H -1   1.257633  -0.559351 -14.093437 M 
     N -1  -0.203575  -0.470229 -16.338756 M 
     C -1   1.093907  -1.098627 -16.525381 M 
     C -1  -1.104228  -0.344850 -17.472543 M 
     H -1   1.236868  -1.922466 -15.809531 M 
     H -1   1.918393  -0.375831 -16.407131 M 
     H -1   1.140789  -1.522162 -17.532281 M 
     H -1  -2.062067  -0.851431 -17.273374 M 
     H -1  -0.647642  -0.808814 -18.350308 M 
     H -1  -1.309451   0.713232 -17.705173 M 
     C -1   9.888268   4.111194  -1.768776 M 
     C -1  10.426499   5.451369  -1.804264 M 
     O -1   8.638908   3.929983  -1.997515 M 
     C -1  10.722796   2.944988  -1.459764 M 
     C -1   9.600618   6.497118  -2.099970 M 
     H -1  11.485163   5.608860  -1.607520 M 
     H -1   8.453826   2.503935  -1.783992 M 
     C -1  10.085224   1.675075  -1.345573 M 
     C -1  12.118860   3.026368  -1.235962 M 
     C -1   9.905552   7.886075  -2.215293 M 
     H -1   8.555749   6.233245  -2.294640 M 
     O -1   8.762692   1.531736  -1.557099 M 
     C -1  10.841393   0.543704  -0.993913 M 
     C -1  12.847237   1.894495  -0.894950 M 
     H -1  12.625271   3.983468  -1.332354 M 
     C -1   8.886267   8.771751  -2.630074 M 
     C -1  11.180208   8.438621  -1.952004 M 
     H -1  10.340789  -0.415506  -0.874753 M 
     C -1  12.198546   0.650728  -0.761818 M 
     O -1  14.196241   1.882141  -0.656254 M 
     C -1   9.113389  10.122517  -2.795999 M 
     H -1   7.891275   8.369760  -2.826601 M 
     C -1  11.429022   9.781106  -2.117030 M 
     H -1  11.988329   7.798478  -1.599585 M 
     H -1  12.782954  -0.217089  -0.454120 M 
     C -1  14.892690   3.134268  -0.715900 M 
     C -1  10.404002  10.668268  -2.556992 M 
     H -1   8.292909  10.768440  -3.101451 M 
     H -1  12.414483  10.170646  -1.877625 M 
     H -1  14.454407   3.856506  -0.008023 M 
     H -1  15.922627   2.915549  -0.418324 M 
     H -1  14.865050   3.558440  -1.730294 M 
     N -1  10.660592  11.991662  -2.734692 M 
     C -1  12.017713  12.503922  -2.598423 M 
     C -1   9.567230  12.922542  -2.953518 M 
     H -1  12.716038  11.921878  -3.218117 M 
     H -1  12.045281  13.547996  -2.922249 M 
     H -1  12.359887  12.469219  -1.552242 M 
     H -1   8.822639  12.853538  -2.144933 M 
     H -1   9.050228  12.723482  -3.908250 M 
     H -1   9.962693  13.943115  -2.970654 M 
     C -1   0.108550  -1.349894   4.987871 M 
     C -1  -0.609255  -0.982157   6.138682 M 
     H -1  -0.364433  -1.345964   4.007958 M 
     C -1   1.437249  -1.737392   5.090015 M 
     C -1   0.034409  -0.987679   7.370556 M 
     O -1  -1.938158  -0.624828   6.139270 M 
     C -1   2.092517  -1.760413   6.327449 M 
     H -1   1.982014  -2.053463   4.200181 M 
     H -1  -0.547798  -0.696892   8.242350 M 
     C -1   1.383438  -1.367706   7.502291 M 
     C -1  -2.651359  -0.800924   4.906419 M 
     O -1   3.384222  -2.148686   6.382283 M 
     C -1   2.077927  -1.405597   8.799930 M 
     H -1  -2.505904  -1.820143   4.514101 M 
     H -1  -3.709475  -0.655998   5.149228 M 
     H -1  -2.326778  -0.061457   4.158875 M 
     H -1   3.603282  -2.088332   7.393147 M 
     C -1   1.392867  -1.031836  10.014222 M 
     O -1   3.303920  -1.776190   8.822378 M 
     H -1   0.397200  -0.602107   9.935780 M 
     C -1   1.970685  -1.177892  11.240158 M 
     C -1   1.442454  -0.804608  12.516617 M 
     H -1   2.971714  -1.619772  11.253795 M 
     C -1   0.165861  -0.232584  12.722304 M 
     C -1   2.247662  -0.993537  13.660685 M 
     C -1  -0.256688   0.153628  13.974088 M 
     H -1  -0.506110  -0.091447  11.874529 M 
     C -1   1.854200  -0.590185  14.918195 M 
     H -1   3.218202  -1.472900  13.542240 M 
     C -1   0.590161   0.021376  15.110250 M 
     H -1  -1.257633   0.559350  14.093437 M 
     H -1   2.519860  -0.758137  15.761098 M 
     N -1   0.203575   0.470229  16.338757 M 
     C -1  -1.093906   1.098627  16.525382 M 
     C -1   1.104228   0.344849  17.472543 M 
     H -1  -1.918392   0.375831  16.407131 M 
     H -1  -1.140788   1.522162  17.532282 M 
     H -1  -1.236868   1.922467  15.809530 M 
     H -1   2.062067   0.851430  17.273374 M 
     H -1   0.647642   0.808814  18.350308 M 
     H -1   1.309451  -0.713232  17.705173 M 
     C -1   4.193215   5.216216  -4.030590 M 
     H -1   3.312213   5.793597  -4.350885 M 
     H -1   3.904510   4.169859  -3.882571 M 
     H -1   4.975068   5.280546  -4.802010 M 
     O -1   4.662150   5.676569  -2.756122 M 
     C -1   5.011785   6.997279  -2.644728 M 
     C -1   5.236887   7.441621  -1.326419 M 
     C -1   5.140448   7.883460  -3.704896 M 
     C -1   5.498406   8.770466  -1.066972 M 
     H -1   5.161068   6.722251  -0.510496 M 
     C -1   5.433664   9.249405  -3.468734 M 
     H -1   5.000483   7.526229  -4.722677 M 
     C -1   5.557949   9.699751  -2.121133 M 
     H -1   5.625670   9.127184  -0.045477 M 
     C -1   5.640706  10.226194  -4.547421 M 
     O -1   5.738567  10.998592  -1.827526 M 
     C -1   5.768832   9.800554  -5.927102 M 
     O -1   5.757581  11.462786  -4.235690 M 
     H -1   5.758709  11.457587  -2.761271 M 
     C -1   6.018673  10.697645  -6.927274 M 
     H -1   5.721000   8.734824  -6.148364 M 
     C -1   6.241320  10.416425  -8.316179 M 
     H -1   6.053225  11.753877  -6.637048 M 
     C -1   6.436350  11.478471  -9.226556 M 
     C -1   6.263332   9.107667  -8.854553 M 
     C -1   6.612372  11.263678 -10.579733 M 
     H -1   6.420569  12.501189  -8.843759 M 
     C -1   6.440279   8.870705 -10.199771 M 
     H -1   6.139629   8.251713  -8.192229 M 
     C -1   6.596931   9.947601 -11.116252 M 
     H -1   6.722849  12.117731 -11.243998 M 
     H -1   6.450485   7.840161 -10.547720 M 
     N -1   6.709926   9.717390 -12.454837 M 
     C -1   6.500596   8.384008 -13.001271 M 
     C -1   6.967694  10.815425 -13.367027 M 
     H -1   7.350927   7.712755 -12.789381 M 
     H -1   6.357333   8.461570 -14.082121 M 
     H -1   5.589766   7.927265 -12.588878 M 
     H -1   6.096903  11.487328 -13.445548 M 
     H -1   7.171674  10.413900 -14.365042 M 
     H -1   7.842182  11.399521 -13.035802 M 
     C -1   0.425924   4.719592  -6.467496 M 
     C -1  -0.103835   4.769477  -7.747855 M 
     C -1  -0.346886   5.155152  -5.376032 M 
     O -1   1.685973   4.268504  -6.147760 M 
     C -1  -1.419747   5.243068  -7.971997 M 
     H -1   0.493354   4.436214  -8.590808 M 
     C -1  -1.626049   5.637731  -5.568192 M 
     H -1   0.077671   5.098102  -4.374849 M 
     C -1   2.512437   3.815848  -7.222399 M 
     C -1  -2.186721   5.680829  -6.852846 M 
     C -1  -2.042229   5.280656  -9.302113 M 
     H -1  -2.222647   5.973663  -4.720041 M 
     H -1   2.676130   4.621816  -7.956169 M 
     H -1   3.467962   3.523732  -6.770532 M 
     H -1   2.053619   2.943349  -7.717419 M 
     O -1  -3.449286   6.144613  -7.003880 M 
     C -1  -1.328133   4.891445 -10.490867 M 
     O -1  -3.265413   5.669520  -9.391898 M 
     H -1  -3.620286   6.004953  -8.030767 M 
     C -1  -1.930285   4.944240 -11.715286 M 
     H -1  -0.304346   4.537927 -10.398643 M 
     C -1  -1.422743   4.547628 -12.989449 M 
     H -1  -2.955397   5.329212 -11.726047 M 
     C -1  -2.252611   4.706830 -14.122808 M 
     C -1  -0.147106   3.970653 -13.196560 M 
     C -1  -1.859895   4.309229 -15.382653 M 
     H -1  -3.238923   5.151213 -13.985776 M 
     C -1   0.263182   3.567123 -14.445042 M 
     H -1   0.526511   3.832193 -12.350682 M 
     C -1  -0.586688   3.711425 -15.578832 M 
     H -1  -2.537731   4.452323 -16.221282 M 
     H -1   1.250754   3.126322 -14.557730 M 
     N -1  -0.190830   3.282747 -16.808941 M 
     C -1  -1.042561   3.508860 -17.965661 M 
     C -1   1.151356   2.757420 -17.013020 M 
     H -1  -1.210770   4.586423 -18.131851 M 
     H -1  -2.023996   3.023475 -17.836293 M 
     H -1  -0.565319   3.093458 -18.859321 M 
     H -1   1.339696   1.896099 -16.355502 M 
     H -1   1.253865   2.433022 -18.053688 M 
     H -1   1.917925   3.522334 -16.808062 M 
     C -1   5.252485  -5.216216   4.030590 M 
     H -1   6.133486  -5.793597   4.350885 M 
     H -1   5.541190  -4.169859   3.882571 M 
     H -1   4.470631  -5.280547   4.802010 M 
     O -1   4.783549  -5.676570   2.756122 M 
     C -1   4.433914  -6.997280   2.644728 M 
     C -1   4.208813  -7.441621   1.326419 M 
     C -1   4.305251  -7.883460   3.704896 M 
     C -1   3.947293  -8.770466   1.066972 M 
     H -1   4.284631  -6.722252   0.510496 M 
     C -1   4.012036  -9.249406   3.468734 M 
     H -1   4.445216  -7.526229   4.722677 M 
     C -1   3.887750  -9.699751   2.121133 M 
     H -1   3.820029  -9.127184   0.045477 M 
     C -1   3.804993 -10.226194   4.547421 M 
     O -1   3.707132 -10.998593   1.827526 M 
     C -1   3.676867  -9.800554   5.927102 M 
     O -1   3.688118 -11.462787   4.235690 M 
     H -1   3.686990 -11.457587   2.761271 M 
     C -1   3.427027 -10.697646   6.927274 M 
     H -1   3.724699  -8.734824   6.148364 M 
     C -1   3.204379 -10.416425   8.316179 M 
     H -1   3.392474 -11.753877   6.637048 M 
     C -1   3.009350 -11.478471   9.226556 M 
     C -1   3.182367  -9.107667   8.854553 M 
     C -1   2.833327 -11.263679  10.579733 M 
     H -1   3.025130 -12.501189   8.843759 M 
     C -1   3.005420  -8.870706  10.199771 M 
     H -1   3.306070  -8.251714   8.192229 M 
     C -1   2.848768  -9.947602  11.116252 M 
     H -1   2.722850 -12.117732  11.243998 M 
     H -1   2.995214  -7.840161  10.547720 M 
     N -1   2.735773  -9.717390  12.454837 M 
     C -1   2.945103  -8.384009  13.001271 M 
     C -1   2.478005 -10.815426  13.367027 M 
     H -1   2.094772  -7.712756  12.789381 M 
     H -1   3.088367  -8.461571  14.082121 M 
     H -1   3.855933  -7.927265  12.588877 M 
     H -1   3.348796 -11.487329  13.445547 M 
     H -1   2.274026 -10.413900  14.365041 M 
     H -1   1.603518 -11.399522  13.035802 M 
     C -1   8.057397  10.863180   0.715900 M 
     H -1   8.495680  10.140942   0.008023 M 
     H -1   7.027460  11.081899   0.418323 M 
     H -1   8.085037  10.439007   1.730294 M 
     O -1   8.753846  12.115306   0.656254 M 
     C -1  10.102850  12.102953   0.894950 M 
     C -1  10.751542  13.346719   0.761818 M 
     C -1  10.831227  10.971079   1.235962 M 
     C -1  12.108694  13.453743   0.993914 M 
     H -1  10.167133  14.214537   0.454120 M 
     C -1  12.227291  11.052459   1.459764 M 
     H -1  10.324816  10.013979   1.332353 M 
     C -1  12.864863  12.322372   1.345573 M 
     H -1  12.609298  14.412954   0.874752 M 
     C -1  13.061819   9.886253   1.768776 M 
     O -1  14.187395  12.465712   1.557099 M 
     C -1  12.523588   8.546079   1.804264 M 
     O -1  14.311179  10.067464   1.997515 M 
     H -1  14.496260  11.493512   1.783992 M 
     H -1  11.464924   8.388588   1.607520 M 
     C -1  13.349469   7.500330   2.099970 M 
     C -1  13.044536   6.111373   2.215293 M 
     H -1  14.394339   7.764202   2.294640 M 
     C -1  14.063820   5.225697   2.630073 M 
     C -1  11.769879   5.558826   1.952003 M 
     C -1  13.836698   3.874931   2.795999 M 
     H -1  15.058812   5.627687   2.826601 M 
     H -1  10.961758   6.198970   1.599585 M 
     C -1  11.521066   4.216342   2.117029 M 
     C -1  12.546085   3.329179   2.556992 M 
     H -1  14.657177   3.229007   3.101450 M 
     H -1  10.535605   3.826802   1.877625 M 
     N -1  12.289495   2.005786   2.734692 M 
     C -1  10.932374   1.493526   2.598423 M 
     C -1  13.382857   1.074906   2.953518 M 
     H -1  10.234049   2.075570   3.218118 M 
     H -1  10.904806   0.449451   2.922249 M 
     H -1  10.590200   1.528228   1.552242 M 
     H -1  12.987394   0.054333   2.970653 M 
     H -1  14.127448   1.143909   2.144933 M 
     H -1  13.899859   1.273966   3.908249 M 
     C -1   8.008450   1.737391  -5.090015 M 
     C -1   7.353182   1.760412  -6.327449 M 
     H -1   7.463685   2.053463  -4.200181 M 
     C -1   9.337150   1.349894  -4.987871 M 
     C -1   8.062261   1.367706  -7.502291 M 
     O -1   6.061477   2.148685  -6.382283 M 
     C -1  10.054955   0.982157  -6.138682 M 
     H -1   9.810133   1.345964  -4.007958 M 
     C -1   7.367772   1.405596  -8.799930 M 
     C -1   9.411291   0.987679  -7.370556 M 
     H -1   5.842417   2.088332  -7.393147 M 
     O -1  11.383858   0.624828  -6.139270 M 
     C -1   8.052832   1.031835 -10.014222 M 
     O -1   6.141779   1.776190  -8.822378 M 
     H -1   9.993498   0.696891  -8.242350 M 
     C -1  12.097058   0.800924  -4.906419 M 
     C -1   7.475014   1.177892 -11.240158 M 
     H -1   9.048500   0.602107  -9.935780 M 
     H -1  11.951604   1.820143  -4.514101 M 
     H -1  13.155175   0.655998  -5.149228 M 
     H -1  11.772478   0.061456  -4.158875 M 
     C -1   8.003245   0.804607 -12.516617 M 
     H -1   6.473985   1.619772 -11.253795 M 
     C -1   7.198037   0.993537 -13.660685 M 
     C -1   9.279839   0.232584 -12.722303 M 
     C -1   7.591499   0.590184 -14.918195 M 
     H -1   6.227497   1.472900 -13.542240 M 
     C -1   9.702389  -0.153628 -13.974088 M 
     H -1   9.951810   0.091446 -11.874529 M 
     H -1   6.925839   0.758137 -15.761098 M 
     C -1   8.855540  -0.021376 -15.110249 M 
     H -1  10.703333  -0.559351 -14.093437 M 
     N -1   9.242125  -0.470229 -16.338756 M 
     C -1  10.539607  -1.098627 -16.525381 M 
     C -1   8.341472  -0.344850 -17.472543 M 
     H -1  10.682567  -1.922466 -15.809531 M 
     H -1  11.364093  -0.375831 -16.407131 M 
     H -1  10.586489  -1.522162 -17.532281 M 
     H -1   7.383633  -0.851431 -17.273374 M 
     H -1   8.798058  -0.808814 -18.350308 M 
     H -1   8.136249   0.713232 -17.705173 M 
     C -1   9.580227  -8.781231  -4.030590 M 
     H -1   8.699225  -8.203850  -4.350885 M 
     H -1   9.291522  -9.827588  -3.882571 M 
     H -1  10.362080  -8.716901  -4.802010 M 
     O -1  10.049162  -8.320878  -2.756122 M 
     C -1  10.398797  -7.000168  -2.644728 M 
     C -1  10.623899  -6.555826  -1.326419 M 
     C -1  10.527460  -6.113987  -3.704896 M 
     C -1  10.885418  -5.226981  -1.066972 M 
     H -1  10.548080  -7.275196  -0.510496 M 
     C -1  10.820676  -4.748042  -3.468734 M 
     H -1  10.387495  -6.471218  -4.722677 M 
     C -1  10.944961  -4.297696  -2.121133 M 
     H -1  11.012682  -4.870263  -0.045477 M 
     C -1  11.027718  -3.771253  -4.547421 M 
     O -1  11.125579  -2.998855  -1.827526 M 
     C -1  11.155844  -4.196893  -5.927102 M 
     O -1  11.144593  -2.534661  -4.235690 M 
     H -1  11.145721  -2.539860  -2.761271 M 
     C -1  11.405685  -3.299802  -6.927274 M 
     H -1  11.108012  -5.262623  -6.148364 M 
     C -1  11.628332  -3.581022  -8.316179 M 
     H -1  11.440237  -2.243570  -6.637048 M 
     C -1  11.823362  -2.518976  -9.226556 M 
     C -1  11.650344  -4.889780  -8.854553 M 
     C -1  11.999384  -2.733769 -10.579733 M 
     H -1  11.807581  -1.496258  -8.843759 M 
     C -1  11.827291  -5.126742 -10.199771 M 
     H -1  11.526641  -5.745734  -8.192229 M 
     C -1  11.983943  -4.049846 -11.116252 M 
     H -1  12.109861  -1.879716 -11.243998 M 
     H -1  11.837497  -6.157286 -10.547720 M 
     N -1  12.096938  -4.280057 -12.454837 M 
     C -1  11.887608  -5.613439 -13.001271 M 
     C -1  12.354706  -3.182022 -13.367027 M 
     H -1  12.737939  -6.284692 -12.789381 M 
     H -1  11.744345  -5.535877 -14.082121 M 
     H -1  10.976778  -6.070182 -12.588878 M 
     H -1  11.483915  -2.510119 -13.445548 M 
     H -1  12.558686  -3.583547 -14.365042 M 
     H -1  13.229194  -2.597926 -13.035802 M 
     C -1  -5.252485   5.216216  -4.030590 M 
     H -1  -6.133487   5.793597  -4.350885 M 
     H -1  -5.541190   4.169859  -3.882571 M 
     H -1  -4.470632   5.280546  -4.802010 M 
     O -1  -4.783550   5.676569  -2.756122 M 
     C -1  -4.433915   6.997279  -2.644728 M 
     C -1  -4.208813   7.441621  -1.326419 M 
     C -1  -4.305252   7.883460  -3.704896 M 
     C -1  -3.947294   8.770466  -1.066972 M 
     H -1  -4.284632   6.722251  -0.510496 M 
     C -1  -4.012036   9.249405  -3.468734 M 
     H -1  -4.445217   7.526229  -4.722677 M 
     C -1  -3.887751   9.699751  -2.121133 M 
     H -1  -3.820030   9.127184  -0.045477 M 
     C -1  -3.804994  10.226194  -4.547421 M 
     O -1  -3.707133  10.998592  -1.827526 M 
     C -1  -3.676868   9.800554  -5.927102 M 
     O -1  -3.688119  11.462786  -4.235690 M 
     H -1  -3.686991  11.457587  -2.761271 M 
     C -1  -3.427027  10.697645  -6.927274 M 
     H -1  -3.724700   8.734824  -6.148364 M 
     C -1  -3.204380  10.416425  -8.316179 M 
     H -1  -3.392475  11.753877  -6.637048 M 
     C -1  -3.009350  11.478471  -9.226556 M 
     C -1  -3.182368   9.107667  -8.854553 M 
     C -1  -2.833328  11.263678 -10.579733 M 
     H -1  -3.025131  12.501189  -8.843759 M 
     C -1  -3.005421   8.870705 -10.199771 M 
     H -1  -3.306071   8.251713  -8.192229 M 
     C -1  -2.848769   9.947601 -11.116252 M 
     H -1  -2.722851  12.117731 -11.243998 M 
     H -1  -2.995215   7.840161 -10.547720 M 
     N -1  -2.735774   9.717390 -12.454837 M 
     C -1  -2.945104   8.384008 -13.001271 M 
     C -1  -2.478006  10.815425 -13.367027 M 
     H -1  -2.094773   7.712755 -12.789381 M 
     H -1  -3.088367   8.461570 -14.082121 M 
     H -1  -3.855934   7.927265 -12.588878 M 
     H -1  -3.348797  11.487328 -13.445548 M 
     H -1  -2.274026  10.413900 -14.365042 M 
     H -1  -1.603518  11.399521 -13.035802 M 
     C -1  -9.311172  -8.781231  -4.030590 M 
     H -1 -10.192174  -8.203850  -4.350885 M 
     H -1  -9.599877  -9.827588  -3.882571 M 
     H -1  -8.529319  -8.716901  -4.802010 M 
     O -1  -8.842237  -8.320878  -2.756122 M 
     C -1  -8.492602  -7.000168  -2.644728 M 
     C -1  -8.267500  -6.555826  -1.326419 M 
     C -1  -8.363939  -6.113987  -3.704896 M 
     C -1  -8.005981  -5.226981  -1.066972 M 
     H -1  -8.343319  -7.275196  -0.510496 M 
     C -1  -8.070723  -4.748042  -3.468734 M 
     H -1  -8.503904  -6.471218  -4.722677 M 
     C -1  -7.946438  -4.297696  -2.121133 M 
     H -1  -7.878717  -4.870263  -0.045477 M 
     C -1  -7.863681  -3.771253  -4.547421 M 
     O -1  -7.765820  -2.998855  -1.827526 M 
     C -1  -7.735555  -4.196893  -5.927102 M 
     O -1  -7.746806  -2.534661  -4.235690 M 
     H -1  -7.745678  -2.539860  -2.761271 M 
     C -1  -7.485714  -3.299802  -6.927274 M 
     H -1  -7.783387  -5.262623  -6.148364 M 
     C -1  -7.263067  -3.581022  -8.316179 M 
     H -1  -7.451162  -2.243570  -6.637048 M 
     C -1  -7.068037  -2.518976  -9.226556 M 
     C -1  -7.241055  -4.889780  -8.854553 M 
     C -1  -6.892015  -2.733769 -10.579733 M 
     H -1  -7.083818  -1.496258  -8.843759 M 
     C -1  -7.064108  -5.126742 -10.199771 M 
     H -1  -7.364758  -5.745734  -8.192229 M 
     C -1  -6.907456  -4.049846 -11.116252 M 
     H -1  -6.781538  -1.879716 -11.243998 M 
     H -1  -7.053902  -6.157286 -10.547720 M 
     N -1  -6.794461  -4.280057 -12.454837 M 
     C -1  -7.003791  -5.613439 -13.001271 M 
     C -1  -6.536693  -3.182022 -13.367027 M 